p cnf 118 393
-2 3 -4 0
2 -3 -4 0
-2 -3 4 0
2 3 4 0
7 -5 0
7 6 0
5 -6 -7 0
7 -8 -9 0
-7 8 -9 0
7 8 9 0
-7 -8 9 0
-10 -4 0
-10 9 0
4 -9 10 0
11 -1 0
11 -10 0
1 10 -11 0
11 12 -13 0
-11 -12 -13 0
11 -12 13 0
-11 12 13 0
-14 -9 0
-14 6 0
9 -6 14 0
13 -14 -15 0
-13 14 -15 0
13 14 15 0
-13 -14 15 0
-16 -17 -18 0
16 17 -18 0
-16 17 18 0
16 -17 18 0
18 19 -20 0
-18 -19 -20 0
18 -19 20 0
-18 19 20 0
4 21 -22 0
-4 -21 -22 0
4 -21 22 0
-4 21 22 0
-23 22 0
-23 19 0
-22 -19 23 0
-12 -17 -24 0
12 17 -24 0
-12 17 24 0
12 -17 24 0
-3 24 -25 0
3 -24 -25 0
-3 -24 25 0
3 24 25 0
-23 -25 -26 0
23 25 -26 0
-23 25 26 0
23 -25 26 0
-27 20 0
-27 26 0
-20 -26 27 0
28 -3 0
28 2 0
3 -2 -28 0
29 -6 0
29 -17 0
6 17 -29 0
30 -29 0
30 -18 0
29 18 -30 0
-31 29 0
-31 30 0
-29 -30 31 0
-32 -31 0
-32 -3 0
31 3 32 0
34 -33 0
34 -7 0
33 7 -34 0
-35 19 0
-35 3 0
-19 -3 35 0
36 -34 0
36 35 0
34 -35 -36 0
38 -8 0
38 -37 0
8 37 -38 0
39 -2 0
39 38 0
2 -38 -39 0
-40 -39 0
-40 -38 0
39 38 40 0
-41 36 0
-41 -40 0
-36 40 41 0
32 41 -42 0
-32 -41 -42 0
32 -41 42 0
-32 41 42 0
-43 -28 0
-43 -42 0
28 42 43 0
27 43 -44 0
-27 -43 -44 0
27 -43 44 0
-27 43 44 0
-45 -36 0
-45 -30 0
36 30 45 0
46 -5 0
46 33 0
5 -33 -46 0
47 -45 0
47 -46 0
45 46 -47 0
-44 47 -48 0
44 -47 -48 0
-44 -47 48 0
44 47 48 0
49 15 0
49 -48 0
-15 48 -49 0
-50 -51 0
50 -51 0
-52 -16 0
-52 12 0
16 -12 52 0
-52 -36 -53 0
52 36 -53 0
-52 36 53 0
52 -36 53 0
-54 51 0
-54 -53 0
-51 53 54 0
55 12 -56 0
-55 -12 -56 0
55 -12 56 0
-55 12 56 0
57 -38 0
57 -56 0
38 56 -57 0
-58 34 0
-58 -38 0
-34 38 58 0
-59 38 0
-59 58 0
-38 -58 59 0
60 -59 0
60 24 0
59 -24 -60 0
57 -60 -61 0
-57 60 -61 0
57 60 61 0
-57 -60 61 0
-54 -61 -62 0
54 61 -62 0
-54 61 62 0
54 -61 62 0
-63 -6 0
-63 -7 0
6 7 63 0
-64 63 0
-64 -29 0
-63 29 64 0
65 -56 0
65 19 0
56 -19 -65 0
-64 65 -66 0
64 -65 -66 0
-64 -65 66 0
64 65 66 0
-39 -50 -67 0
39 50 -67 0
-39 50 67 0
39 -50 67 0
-68 66 0
-68 67 0
-66 -67 68 0
50 40 -69 0
-50 -40 -69 0
50 -40 69 0
-50 40 69 0
70 -30 0
70 6 0
30 -6 -70 0
70 34 -71 0
-70 -34 -71 0
70 -34 71 0
-70 34 71 0
69 71 -72 0
-69 -71 -72 0
69 -71 72 0
-69 71 72 0
73 21 0
73 -7 0
-21 7 -73 0
73 6 -74 0
-73 -6 -74 0
73 -6 74 0
-73 6 74 0
-72 74 -75 0
72 -74 -75 0
-72 -74 75 0
72 74 75 0
76 68 0
76 75 0
-68 -75 -76 0
38 -70 -77 0
-38 70 -77 0
38 70 77 0
-38 -70 77 0
-4 77 -78 0
4 -77 -78 0
-4 -77 78 0
4 77 78 0
-79 -76 0
-79 78 0
76 -78 79 0
-80 2 0
-80 30 0
-2 -30 80 0
-81 -7 0
-81 80 0
7 -80 81 0
81 1 -82 0
-81 -1 -82 0
81 -1 82 0
-81 1 82 0
-83 -79 0
-83 82 0
79 -82 83 0
-84 62 0
-84 83 0
-62 -83 84 0
49 84 -85 0
-49 -84 -85 0
49 -84 85 0
-49 84 85 0
86 -9 0
86 -24 0
9 24 -86 0
88 -19 0
88 -40 0
19 40 -88 0
-89 -88 0
-89 22 0
88 -22 89 0
-87 89 -90 0
87 -89 -90 0
-87 -89 90 0
87 89 90 0
-91 21 0
-91 -24 0
-21 24 91 0
92 -91 0
92 30 0
91 -30 -92 0
-93 90 0
-93 92 0
-90 -92 93 0
-94 86 0
-94 -93 0
-86 93 94 0
-95 -80 0
-95 -45 0
80 45 95 0
96 -94 0
96 95 0
94 -95 -96 0
97 46 0
97 9 0
-46 -9 -97 0
-98 -96 0
-98 -97 0
96 97 98 0
9 -67 -99 0
-9 67 -99 0
9 67 99 0
-9 -67 99 0
-100 -99 0
-100 -80 0
99 80 100 0
-101 -34 0
-101 -17 0
34 17 101 0
102 -39 0
102 37 0
39 -37 -102 0
-46 -102 -103 0
46 102 -103 0
-46 102 103 0
46 -102 103 0
-104 -101 0
-104 -103 0
101 103 104 0
-9 -12 -105 0
9 12 -105 0
-9 12 105 0
9 -12 105 0
106 -104 0
106 105 0
104 -105 -106 0
107 100 0
107 106 0
-100 -106 -107 0
1 -36 -108 0
-1 36 -108 0
1 36 108 0
-1 -36 108 0
-109 -73 0
-109 -69 0
73 69 109 0
110 -56 0
110 -17 0
56 17 -110 0
111 36 0
111 110 0
-36 -110 -111 0
-110 50 -112 0
110 -50 -112 0
-110 -50 112 0
110 50 112 0
111 -112 -113 0
-111 112 -113 0
111 112 113 0
-111 -112 113 0
109 113 -114 0
-109 -113 -114 0
109 -113 114 0
-109 113 114 0
115 -108 0
115 -114 0
108 114 -115 0
116 -107 0
116 115 0
107 -115 -116 0
117 98 0
117 -116 0
-98 116 -117 0
118 -85 0
118 -117 0
85 117 -118 0
59 95 -66 0
2 -20 -39 -96 0
-43 103 -60 0
-86 -27 0
96 -67 3 -46 0
-101 -65 0
-102 42 87 -29 0
72 -79 -12 0
31 64 -7 -85 77 21 0
112 -59 89 -29 0
-96 -116 21 -51 -88 0
103 -26 -24 84 0
12 -84 38 0
-32 -23 -70 108 -18 0
-93 -114 105 -49 47 -69 0
98 100 0
-25 -20 -13 30 0
18 -103 0
24 -56 -103 -92 -50 46 0
27 108 -38 -107 -43 66 0
-99 13 -35 -38 -55 0
-85 52 63 32 110 48 0
52 -92 0
-56 -70 -95 -11 32 -36 0
-103 107 -53 38 78 0
-19 115 -114 55 0
-4 88 -18 83 0
-81 24 -28 -79 -85 40 0
-64 -26 100 -51 20 0
5 93 -20 88 3 79 0
-112 3 28 46 33 -19 0
-33 100 14 106 28 0
-61 -112 113 117 5 -9 0
-65 -7 -56 -107 0
93 -6 39 0
-93 84 51 -32 59 0
24 84 0
-93 83 -11 21 0
20 46 97 29 77 9 0
-68 83 -105 -34 67 0
-57 67 -87 0
-117 26 -66 0
45 3 116 -57 -53 0
30 -94 21 -57 -46 0
115 95 -29 50 112 1 0
104 -13 0
49 108 -87 47 -68 -95 0
77 -26 100 4 -98 -82 0
63 -102 -81 39 -46 0
97 94 108 -79 0
38 12 -67 -37 78 0
118 0
